(declare-fun e () String)
(declare-fun c () String)
(declare-fun g () String)
(declare-fun b () String)
(declare-fun d () String)
(declare-fun f () String)
(declare-fun a () String)
(declare-fun h () String)
(assert (= (str.++ h "ef" h b) (str.++ f a "bf" d d)))
(assert (= (str.++ e "cg" c) (str.++ f "h")))
(assert (= "h" (str.++ "be" g "hfb")))

(check-sat)
